language ESSENCE' 1.0
$ loaded file: carseqdata/csplib-instance-64
letting numcars=200
letting numclasses=26
letting numoptions=5
letting optMax=[1, 2, 1, 2, 1]
letting windowSize=[2, 3, 3, 5, 5]
letting numberPerClass=[5, 22, 12, 3, 3, 3, 2, 7, 2, 1, 9, 5, 6, 19, 1, 12, 2, 3, 4, 14, 8, 3, 34, 15, 3, 2]
letting optionsRequired=[[1, 1, 1, 0, 0], [1, 0, 0, 0, 0], [1, 0, 0, 1, 0], [0, 1, 0, 1, 1], [0, 0, 0, 1, 1], [0, 1, 1, 1, 0], [1, 0, 1, 0, 1], [0, 1, 0, 0, 1], [1, 0, 1, 1, 0], [1, 0, 0, 0, 1], [0, 0, 0, 1, 0], [1, 0, 1, 0, 0], [0, 0, 1, 1, 0], [1, 1, 0, 0, 0], [1, 1, 1, 1, 0], [0, 1, 1, 0, 0], [0, 1, 1, 0, 1], [0, 0, 0, 0, 1], [1, 1, 0, 0, 1], [0, 0, 1, 0, 0], [1, 1, 0, 1, 0], [0, 0, 1, 0, 1], [0, 1, 0, 0, 0], [0, 1, 0, 1, 0], [1, 0, 0, 1, 1], [1, 1, 0, 0, 1]]
